NAME : local_4
TYPE : ATSP
DIMENSION : 7
EDGE_WEIGHT_TYPE : EXPLICIT
EDGE_WEIGHT_FORMAT : FULL_MATRIX
EDGE_WEIGHT_SECTION
0 513 10000000 10000000 739 10000000 395 
0 0 986 1007 892 813 706 
0 986 0 331 10000000 424 10000000 
0 1049 331 0 10000000 272 10000000 
0 892 10000000 10000000 0 10000000 366 
0 813 424 272 10000000 0 10000000 
0 10000000 10000000 10000000 10000000 10000000 0 
EOF